(set-info :origin "SVCOMP13 benchmarks generated by Arie Gurfinkel")
(set-info :status sat)
(set-logic HORN)
(declare-fun cp-rel-entry () Bool)
(declare-fun cp-rel-bb2.i.i26.i.i () Bool)
(declare-fun cp-rel-bb1.i.i (Real Real Real Real) Bool)
(assert |cp-rel-entry|)
(assert (forall ((?A Real) (?B Real) (?C Real) (?D Real) (?E Bool) )(let (($x188672 (and |cp-rel-entry| (<= ?D 1.0) (>= ?C 0.0) (<= ?C 0.0) (>= ?B 0.0) (<= ?B 0.0) (>= ?A 0.0) (<= ?A 0.0) (= ?E true) (>= ?D 1.0))))
(=> $x188672 (|cp-rel-bb1.i.i| ?A ?B ?C ?D))))
)
(assert (forall ((?A Real) (?B Real) (?C Real) (?D Real) (?E Real) (?F Real) (?G Real) (?H Real) (?I Bool) (?J Bool) (?K Bool) (?L Bool) (?M Bool) (?N Bool) (?O Real) (?P Real) (?Q Bool) (?R Bool) (?S Bool) (?T Bool) (?U Bool) (?V Bool) (?W Real) (?X Real) (?Y Bool) (?Z Bool) (?A1 Bool) (?B1 Bool) (?C1 Bool) (?D1 Bool) (?E1 Bool) (?F1 Bool) (?G1 Bool) (?H1 Bool) (?I1 Bool) (?J1 Real) (?K1 Real) (?L1 Real) (?M1 Bool) (?N1 Real) (?O1 Bool) (?P1 Bool) (?Q1 Bool) (?R1 Bool) (?S1 Bool) (?T1 Real) (?U1 Bool) (?V1 Real) (?W1 Real) (?X1 Bool) (?Y1 Bool) (?Z1 Bool) (?A2 Real) (?B2 Bool) (?C2 Bool) )(let (($x356978 (|cp-rel-bb1.i.i| ?E ?F ?G ?H)))
(let (($x170426 (or (not ?I) (and ?J ?K (not ?L)))))
(let (($x382464 (or (not ?I) ?K)))
(let (($x873194 (not ?M)))
(let (($x254421 (or $x873194 (and ?I ?N (<= ?O ?P) (>= ?O ?P)) (and ?J ?Q ?L (<= ?O ?D) (>= ?O ?D)))))
(let (($x185077 (or $x873194 (and ?N (not ?Q)) (and ?Q (not ?N)))))
(let (($x362832 (or (not ?R) (and ?M ?S (not ?T)))))
(let (($x428047 (or (not ?R) ?S)))
(let (($x113238 (not ?U)))
(let (($x278947 (or $x113238 (and ?R ?V (<= ?W ?X) (>= ?W ?X)) (and ?M ?Y ?T (<= ?W ?C) (>= ?W ?C)))))
(let (($x518286 (or $x113238 (and ?V (not ?Y)) (and ?Y (not ?V)))))
(let (($x275754 (or (not ?Z) (and ?U ?A1 ?B1))))
(let (($x259923 (or (not ?Z) ?A1)))
(let (($x287616 (or (not ?C1) (and ?U ?D1 (not ?B1)))))
(let (($x546218 (or (not ?C1) ?D1)))
(let (($x337062 (or (not ?E1) (and ?C1 ?F1 ?G1))))
(let (($x327425 (or (not ?E1) ?F1)))
(let (($x515772 (>= ?J1 ?N1)))
(let (($x464751 (<= ?J1 ?N1)))
(let (($x895353 (and ?C1 ?O1 (not ?G1) $x464751 $x515772 (<= ?K1 0.0) (>= ?K1 0.0))))
(let (($x477985 (and ?Z ?I1 (<= ?J1 ?O) (>= ?J1 ?O) (<= ?K1 ?L1) (>= ?K1 ?L1))))
(let (($x817755 (not ?H1)))
(let (($x186580 (or $x817755 $x477985 (and ?E1 ?M1 $x464751 $x515772 (<= ?K1 ?A) (>= ?K1 ?A)) $x895353)))
(let (($x572795 (or $x817755 (and ?I1 (not ?M1) (not ?O1)) (and ?M1 (not ?I1) (not ?O1)) (and ?O1 (not ?I1) (not ?M1)))))
(let (($x327920 (or (not ?P1) (and ?H1 ?Q1 (not ?R1)))))
(let (($x757324 (or (not ?P1) ?Q1)))
(let (($x545824 (and ?H1 ?R1 (<= ?E ?K1) (>= ?E ?K1) (<= ?F 0.0) (>= ?F 0.0) (<= ?G ?W) (>= ?G ?W) (<= ?H ?J1) (>= ?H ?J1))))
(let (($x70940 (and ?P1 ?S1 (<= ?E ?K1) (>= ?E ?K1) (<= ?F 1.0) (>= ?F 1.0) (<= ?G ?W) (>= ?G ?W) (<= ?H ?J1) (>= ?H ?J1))))
(let (($x876079 (= ?L (= ?T1 0.0))))
(let (($x111976 (= ?V1 (ite ?U1 1.0 0.0))))
(let (($x931864 (= ?T (= ?W1 0.0))))
(let (($x354980 (= ?X (ite ?X1 1.0 0.0))))
(let (($x909199 (= ?Y1 (not (<= ?O 1.0)))))
(let (($x135867 (= ?Z1 (not (<= ?O 0.0)))))
(let (($x636692 (= ?A2 (+ (~ 1.0) ?O))))
(let (($x139968 (= ?N1 (ite ?Z1 ?A2 ?O))))
(let (($x571456 (= ?G1 (= ?N1 0.0))))
(let (($x761772 (= ?B2 (= ?W 0.0))))
(let (($x545668 (= ?C2 (= ?K1 0.0))))
(let (($x478352 (= ?R1 (or ?C2 ?B2))))
(let (($x347904 (and (|cp-rel-bb1.i.i| ?A ?B ?C ?D) $x478352 $x545668 $x761772 $x571456 $x139968 $x636692 $x135867 (= ?L1 (ite ?Y1 1.0 ?A)) $x909199 (= ?B1 (= ?A 0.0)) $x354980 (= ?X1 (= ?C 0.0)) $x931864 (= ?P (+ ?V1 ?D)) $x111976 (= ?U1 (not (<= 2.0 ?D))) $x876079 (or $x70940 $x545824) $x757324 $x327920 $x572795 $x186580 $x327425 $x337062 $x546218 $x287616 $x259923 $x275754 $x518286 $x278947 $x428047 $x362832 $x185077 $x254421 $x382464 $x170426 (= ?S1 (= ?B 0.0)))))
(=> $x347904 $x356978)))))))))))))))))))))))))))))))))))))))))))
)
(assert (forall ((?A Real) (?B Real) (?C Real) (?D Real) (?E Bool) (?F Bool) (?G Bool) (?H Bool) (?I Bool) (?J Bool) (?K Real) (?L Real) (?M Bool) (?N Bool) (?O Bool) (?P Bool) (?Q Bool) (?R Bool) (?S Real) (?T Real) (?U Bool) (?V Bool) (?W Bool) (?X Bool) (?Y Bool) (?Z Bool) (?A1 Bool) (?B1 Bool) (?C1 Bool) (?D1 Bool) (?E1 Bool) (?F1 Real) (?G1 Real) (?H1 Real) (?I1 Bool) (?J1 Real) (?K1 Bool) (?L1 Bool) (?M1 Bool) (?N1 Bool) (?O1 Bool) (?P1 Real) (?Q1 Bool) (?R1 Real) (?S1 Real) (?T1 Bool) (?U1 Bool) (?V1 Bool) (?W1 Real) (?X1 Bool) (?Y1 Bool) )(let (($x170426 (or (not ?E) (and ?F ?G (not ?H)))))
(let (($x382464 (or (not ?E) ?G)))
(let (($x873194 (not ?I)))
(let (($x83568 (or $x873194 (and ?E ?J (<= ?K ?L) (>= ?K ?L)) (and ?F ?M ?H (<= ?K ?D) (>= ?K ?D)))))
(let (($x185077 (or $x873194 (and ?J (not ?M)) (and ?M (not ?J)))))
(let (($x362832 (or (not ?N) (and ?I ?O (not ?P)))))
(let (($x428047 (or (not ?N) ?O)))
(let (($x113238 (not ?Q)))
(let (($x553969 (or $x113238 (and ?N ?R (<= ?S ?T) (>= ?S ?T)) (and ?I ?U ?P (<= ?S ?C) (>= ?S ?C)))))
(let (($x518286 (or $x113238 (and ?R (not ?U)) (and ?U (not ?R)))))
(let (($x275754 (or (not ?V) (and ?Q ?W ?X))))
(let (($x259923 (or (not ?V) ?W)))
(let (($x287616 (or (not ?Y) (and ?Q ?Z (not ?X)))))
(let (($x546218 (or (not ?Y) ?Z)))
(let (($x337062 (or (not ?A1) (and ?Y ?B1 ?C1))))
(let (($x327425 (or (not ?A1) ?B1)))
(let (($x515772 (>= ?F1 ?J1)))
(let (($x464751 (<= ?F1 ?J1)))
(let (($x895353 (and ?Y ?K1 (not ?C1) $x464751 $x515772 (<= ?G1 0.0) (>= ?G1 0.0))))
(let (($x477985 (and ?V ?E1 (<= ?F1 ?K) (>= ?F1 ?K) (<= ?G1 ?H1) (>= ?G1 ?H1))))
(let (($x817755 (not ?D1)))
(let (($x463487 (or $x817755 $x477985 (and ?A1 ?I1 $x464751 $x515772 (<= ?G1 ?A) (>= ?G1 ?A)) $x895353)))
(let (($x572795 (or $x817755 (and ?E1 (not ?I1) (not ?K1)) (and ?I1 (not ?E1) (not ?K1)) (and ?K1 (not ?E1) (not ?I1)))))
(let (($x327920 (or (not ?L1) (and ?D1 ?M1 (not ?N1)))))
(let (($x757324 (or (not ?L1) ?M1)))
(let (($x876079 (= ?H (= ?P1 0.0))))
(let (($x111976 (= ?R1 (ite ?Q1 1.0 0.0))))
(let (($x931864 (= ?P (= ?S1 0.0))))
(let (($x354980 (= ?T (ite ?T1 1.0 0.0))))
(let (($x909199 (= ?U1 (not (<= ?K 1.0)))))
(let (($x135867 (= ?V1 (not (<= ?K 0.0)))))
(let (($x636692 (= ?W1 (+ (~ 1.0) ?K))))
(let (($x139968 (= ?J1 (ite ?V1 ?W1 ?K))))
(let (($x571456 (= ?C1 (= ?J1 0.0))))
(let (($x761772 (= ?X1 (= ?S 0.0))))
(let (($x545668 (= ?Y1 (= ?G1 0.0))))
(let (($x478352 (= ?N1 (or ?Y1 ?X1))))
(let (($x356978 (|cp-rel-bb1.i.i| ?A ?B ?C ?D)))
(let (($x636737 (and $x356978 $x478352 $x545668 $x761772 $x571456 $x139968 $x636692 $x135867 (= ?H1 (ite ?U1 1.0 ?A)) $x909199 (= ?X (= ?A 0.0)) $x354980 (= ?T1 (= ?C 0.0)) $x931864 (= ?L (+ ?R1 ?D)) $x111976 (= ?Q1 (not (<= 2.0 ?D))) $x876079 (not (= ?O1 true)) (= ?L1 true) $x757324 $x327920 $x572795 $x463487 $x327425 $x337062 $x546218 $x287616 $x259923 $x275754 $x518286 $x553969 $x428047 $x362832 $x185077 $x83568 $x382464 $x170426 (= ?O1 (= ?B 0.0)))))
(=> $x636737 |cp-rel-bb2.i.i26.i.i|)))))))))))))))))))))))))))))))))))))))))
)
(assert (not cp-rel-bb2.i.i26.i.i))
(check-sat)
